words_train/words_747_SAT.qaiger
aag 92 24 0 1 68
36
44
42
30
46
40
22
6
26
28
24
34
38
32
12
2
48
10
14
18
8
4
20
16
185
50 46 30
52 44 28
54 42 26
56 40 24
58 38 22
60 36 20
62 34 18
64 37 21
66 65 61
68 66 62
70 69 61
72 39 23
74 73 59
76 74 71
78 77 59
80 41 25
82 81 57
84 82 79
86 85 57
88 43 27
90 89 55
92 90 87
94 93 55
96 45 29
98 97 53
100 98 95
102 101 53
104 47 31
106 105 51
108 106 103
110 109 51
112 49 32
114 48 33
116 115 113
118 116 111
120 117 110
122 121 119
124 122 16
126 99 94
128 127 101
130 129 12
132 91 86
134 133 93
136 135 10
138 83 78
140 139 85
142 141 8
144 35 19
146 145 63
148 146 2
150 147 3
152 151 149
154 153 143
156 154 137
158 156 131
160 107 102
162 161 109
164 163 14
166 67 63
168 167 69
170 169 4
172 75 70
174 173 77
176 175 6
178 177 171
180 178 165
182 180 158
184 182 125
i0 1 x[1]
i1 1 x[5]
i2 1 x[4]
i3 2 y[6]
i4 1 x[6]
i5 1 x[3]
i6 2 y[2]
i7 2 z[2]
i8 2 y[4]
i9 2 y[5]
i10 2 y[3]
i11 1 x[0]
i12 1 x[2]
i13 2 y[7]
i14 2 z[5]
i15 2 z[0]
i16 1 x[7]
i17 2 z[4]
i18 2 z[6]
i19 2 y[0]
i20 2 z[3]
i21 2 z[1]
i22 2 y[1]
i23 2 z[7]
o0 bool[0]
c
simplified
  !=
    and
      or
        1
        2 z
      add
        2 y
        1 x
    2 z
