words_train/words_747_SAT.qaiger.qdimacs
p cnf 92 205
a 17 18 19 20 21 22 23 24 0
e 1 2 3 4 5 6 7 8 9 10 11 12 13 14 15 16 25 26 27 28 29 30 31 32 33 34 35 36 37 38 39 40 41 42 43 44 45 46 47 48 49 50 51 52 53 54 55 56 57 58 59 60 61 62 63 64 65 66 67 68 69 70 71 72 73 74 75 76 77 78 79 80 81 82 83 84 85 86 87 88 89 90 91 92 0
-23 -15 25 0
23 -25 0
15 -25 0
-22 -14 26 0
22 -26 0
14 -26 0
-21 -13 27 0
21 -27 0
13 -27 0
-20 -12 28 0
20 -28 0
12 -28 0
-19 -11 29 0
19 -29 0
11 -29 0
-18 -10 30 0
18 -30 0
10 -30 0
-17 -9 31 0
17 -31 0
9 -31 0
18 10 32 0
-18 -32 0
-10 -32 0
32 30 33 0
-32 -33 0
-30 -33 0
-33 -31 34 0
33 -34 0
31 -34 0
34 30 35 0
-34 -35 0
-30 -35 0
19 11 36 0
-19 -36 0
-11 -36 0
36 29 37 0
-36 -37 0
-29 -37 0
-37 35 38 0
37 -38 0
-35 -38 0
38 29 39 0
-38 -39 0
-29 -39 0
20 12 40 0
-20 -40 0
-12 -40 0
40 28 41 0
-40 -41 0
-28 -41 0
-41 39 42 0
41 -42 0
-39 -42 0
42 28 43 0
-42 -43 0
-28 -43 0
21 13 44 0
-21 -44 0
-13 -44 0
44 27 45 0
-44 -45 0
-27 -45 0
-45 43 46 0
45 -46 0
-43 -46 0
46 27 47 0
-46 -47 0
-27 -47 0
22 14 48 0
-22 -48 0
-14 -48 0
48 26 49 0
-48 -49 0
-26 -49 0
-49 47 50 0
49 -50 0
-47 -50 0
50 26 51 0
-50 -51 0
-26 -51 0
23 15 52 0
-23 -52 0
-15 -52 0
52 25 53 0
-52 -53 0
-25 -53 0
-53 51 54 0
53 -54 0
-51 -54 0
54 25 55 0
-54 -55 0
-25 -55 0
24 -16 56 0
-24 -56 0
16 -56 0
-24 16 57 0
24 -57 0
-16 -57 0
57 56 58 0
-57 -58 0
-56 -58 0
-58 55 59 0
58 -59 0
-55 -59 0
58 -55 60 0
-58 -60 0
55 -60 0
60 59 61 0
-60 -61 0
-59 -61 0
-61 -8 62 0
61 -62 0
8 -62 0
49 -47 63 0
-49 -63 0
47 -63 0
63 50 64 0
-63 -64 0
-50 -64 0
64 -6 65 0
-64 -65 0
6 -65 0
45 -43 66 0
-45 -66 0
43 -66 0
66 46 67 0
-66 -67 0
-46 -67 0
67 -5 68 0
-67 -68 0
5 -68 0
41 -39 69 0
-41 -69 0
39 -69 0
69 42 70 0
-69 -70 0
-42 -70 0
70 -4 71 0
-70 -71 0
4 -71 0
17 9 72 0
-17 -72 0
-9 -72 0
72 31 73 0
-72 -73 0
-31 -73 0
-73 -1 74 0
73 -74 0
1 -74 0
73 1 75 0
-73 -75 0
-1 -75 0
75 74 76 0
-75 -76 0
-74 -76 0
76 71 77 0
-76 -77 0
-71 -77 0
-77 68 78 0
77 -78 0
-68 -78 0
-78 65 79 0
78 -79 0
-65 -79 0
53 -51 80 0
-53 -80 0
51 -80 0
80 54 81 0
-80 -81 0
-54 -81 0
81 -7 82 0
-81 -82 0
7 -82 0
33 31 83 0
-33 -83 0
-31 -83 0
83 34 84 0
-83 -84 0
-34 -84 0
84 -2 85 0
-84 -85 0
2 -85 0
37 -35 86 0
-37 -86 0
35 -86 0
86 38 87 0
-86 -87 0
-38 -87 0
87 -3 88 0
-87 -88 0
3 -88 0
88 85 89 0
-88 -89 0
-85 -89 0
-89 82 90 0
89 -90 0
-82 -90 0
-90 -79 91 0
90 -91 0
79 -91 0
-91 62 92 0
91 -92 0
-62 -92 0
-92 0
